7
0, 720, 337, 302, 615, 557, 472
720, 0, 717, 696, 810, 279, 266
337, 717, 0, 38, 278, 684, 561
302, 696, 38, 0, 313, 652, 530
615, 810, 278, 313, 0, 865, 737
557, 279, 684, 652, 865, 0, 128
472, 266, 561, 530, 737, 128, 0
